COLUMNS

passenger_count
pickup_ID
dropoff_ID
request_time_sec
pickup_district
dropoff_district
LDuals
IDuals
vehicle_ID
pick_position
drop_position

REQUESTS_INFO
2      550       580       29603     189       189       117       117       19        1         3         
1      748       484       29581     290       189       139       139       21        1         3         
1      905       971       29539     290       290       183       183       33        1         2         
1      219       20        29602     87        98        169       169       135       1         2         
3      461       629       29609     189       189       178       178       139       1         2         
1      771       61        29560     290       98        170       170       148       1         2         
3      276       232       29561     87        266       235       235       179       1         2         
3      1025      714       29571     291       131       194       194       192       1         2         
1      436       357       29581     100       277       135       135       193       1         3         
1      314       47        29585     119       98        184       184       204       1         2         
1      331       238       29514     127       87        264       264       211       1         2         
2      930       749       29590     999       290       161       161       245       1         2         
3      483       533       29530     189       199       245       245       259       1         2         
2      619       627       29520     131       189       188       188       271       1         3         
1      293       268       29591     87        299       148       148       311       1         3         
1      769       557       29599     290       189       135       135       322       1         3         
1      279       647       29605     87        280       130       130       339       1         3         
1      251       373       29602     127       119       145       145       419       1         3         
1      813       395       29599     290       100       175       175       425       1         3         
1      351       523       29608     52        52        145       145       427       1         3         
1      1023      1086      29584     291       291       117       117       497       1         2         
1      887       605       29593     290       189       148       148       500       1         2         
4      442       334       29583     168       119       179       179       563       1         2         
1      747       652       29587     290       189       151       151       648       1         3         
2      813       859       29502     290       290       272       272       688       1         2         
1      663       663       29590     131       131       154       154       734       1         2         
1      259       11        29557     87        999       276       276       791       1         2         
1      841       1011      29595     290       84        150       150       806       1         2         
3      436       529       29584     100       189       142       142       819       1         3         
2      842       745       29573     290       290       182       182       842       1         2         
3      345       576       29553     299       189       178       178       917       1         2         
3      881       1074      29599     290       84        182       182       919       1         2         
1      284       475       29540     299       52        177       177       921       1         2         
1      768       884       29564     290       290       180       180       926       1         4         
4      969       604       29585     290       189       120       120       927       1         2         
1      527       602       29599     52        189       148       148       953       1         2         
1      983       795       29531     291       290       178       178       982       1         2         
3      345       576       29553     299       189       178       178       1000      1         2         
1      269       413       29599     127       52        137       137       1049      1         3         
1      248       232       29605     266       266       160       160       1058      1         2         
3      838       557       29522     290       189       259       259       1090      1         3         
3      439       532       29558     189       199       204       204       1120      1         2         
2      792       675       29587     290       189       161       161       1143      1         2         
2      946       968       29594     290       290       157       157       1165      1         2         
2      812       904       29517     290       290       238       238       1225      1         2         
1      505       603       29593     52        189       132       132       1267      1         2         
3      269       718       29585     127       189       151       151       1324      1         3         
2      498       287       29562     52        299       152       152       1338      1         2         
1      812       1045      29595     290       291       160       160       1353      1         3         
3      461       629       29609     189       189       178       178       1421      1         3         
3      766       648       29597     290       189       120       120       1435      1         2         
1      888       1046      29573     290       291       183       183       1474      1         3         
3      930       531       29595     999       189       160       160       1531      1         3         
1      1027      690       29595     50        131       132       132       1748      1         3         
1      366       350       29527     299       127       210       210       1778      1         2         
1      1004      602       29601     291       189       166       166       1834      1         3         
1      217       98        29598     87        98        190       190       1842      1         3         
2      160       649       29600     54        189       112       112       1879      1         2         
3      285       368       29601     299       299       104       104       1886      1         3         
2      907       746       29581     290       290       159.5     159.5     1912      1         2         
2      235       100       29586     87        57        211       211       1913      1         3         
1      335       576       29595     119       189       153       153       1935      1         2         
2      1004      884       29573     291       290       194       194       1948      1         2         
1      189       411       29573     286       52        133       133       1963      1         3         
1      559       527       29608     189       52        144       144       1981      1         4         
3      442       417       29594     168       100       150       150       1989      1         3         
1      760       194       29610     291       207       0         0         0         0         0         
1      983       916       29610     291       291       0         0         0         0         0         
1      582       583       29610     189       189       0         0         0         0         0         
3      1271      271       29611     129       127       0         0         0         0         0         
2      1271      271       29611     129       127       0         0         0         0         0         
1      701       417       29611     290       100       0         0         0         0         0         
1      440       440       29611     168       168       0         0         0         0         0         
1      328       116       29611     299       9         0         0         0         0         0         
3      779       628       29611     131       189       0         0         0         0         0         
2      779       628       29611     131       189       0         0         0         0         0         
1      315       416       29612     277       100       0         0         0         0         0         
1      645       577       29612     280       189       0         0         0         0         0         
3      812       990       29612     290       290       0         0         0         0         0         
3      698       349       29612     189       127       0         0         0         0         0         
1      43        48        29612     9         98        0         0         0         0         0         
3      715       871       29613     131       291       0         0         0         0         0         
3      557       697       29613     189       189       0         0         0         0         0         
1      269       738       29613     127       189       0         0         0         0         0         
2      557       697       29613     189       189       0         0         0         0         0         
1      745       604       29613     290       189       0         0         0         0         0         
3      715       871       29613     131       291       0         0         0         0         0         
1      248       628       29614     266       189       0         0         0         0         0         
2      1265      1026      29614     192       291       0         0         0         0         0         
2      134       303       29614     9         299       0         0         0         0         0         
3      1265      1026      29614     192       291       0         0         0         0         0         
3      600       512       29614     280       199       0         0         0         0         0         
2      600       512       29614     280       199       0         0         0         0         0         
2      654       810       29614     189       290       0         0         0         0         0         
2      837       649       29615     290       189       0         0         0         0         0         
1      804       693       29615     291       280       0         0         0         0         0         
1      549       439       29615     52        189       0         0         0         0         0         
1      871       1005      29615     291       50        0         0         0         0         0         
3      1023      1542      29615     291       296       0         0         0         0         0         
3      1023      1542      29615     291       296       0         0         0         0         0         
1      1173      720       29615     129       290       0         0         0         0         0         
1      549       33        29616     52        98        0         0         0         0         0         
1      603       760       29616     189       291       0         0         0         0         0         
1      1111      676       29617     50        189       0         0         0         0         0         
1      858       371       29617     290       52        0         0         0         0         0         
2      368       134       29617     299       9         0         0         0         0         0         
3      368       134       29617     299       9         0         0         0         0         0         
1      1034      531       29617     84        189       0         0         0         0         0         
2      1005      834       29617     50        290       0         0         0         0         0         
1      386       272       29617     299       127       0         0         0         0         0         
1      1068      1004      29617     291       291       0         0         0         0         0         
1      963       721       29617     50        290       0         0         0         0         0         
1      208       603       29618     286       189       0         0         0         0         0         
1      662       874       29618     131       291       0         0         0         0         0         
1      34        578       29618     98        189       0         0         0         0         0         
1      479       47        29618     52        98        0         0         0         0         0         
1      894       580       29618     291       189       0         0         0         0         0         
4      749       687       29618     290       131       0         0         0         0         0         
2      582       371       29618     189       52        0         0         0         0         0         
3      582       371       29618     189       52        0         0         0         0         0         
3      745       760       29619     290       291       0         0         0         0         0         
2      745       760       29619     290       291       0         0         0         0         0         
1      598       719       29619     189       189       0         0         0         0         0         
1      441       527       29619     168       52        0         0         0         0         0         
1      723       692       29619     290       280       0         0         0         0         0         
1      348       219       29619     299       87        0         0         0         0         0         
1      431       499       29619     52        52        0         0         0         0         0         
3      577       371       29620     189       52        0         0         0         0         0         
1      863       928       29620     290       290       0         0         0         0         0         
1      397       651       29620     168       189       0         0         0         0         0         
1      335       600       29620     119       280       0         0         0         0         0         
3      1207      1148      29620     192       291       0         0         0         0         0         
3      1207      1148      29620     192       291       0         0         0         0         0         
3      577       371       29620     189       52        0         0         0         0         0         
1      1025      781       29621     291       291       0         0         0         0         0         
1      887       606       29621     290       189       0         0         0         0         0         
1      980       1167      29621     291       291       0         0         0         0         0         
2      766       968       29621     290       290       0         0         0         0         0         
1      287       117       29621     299       286       0         0         0         0         0         
1      859       188       29622     290       286       0         0         0         0         0         
1      463       392       29622     168       52        0         0         0         0         0         
1      906       904       29622     290       290       0         0         0         0         0         
3      865       1048      29622     290       291       0         0         0         0         0         
2      1244      1046      29623     192       291       0         0         0         0         0         
1      21        694       29623     98        189       0         0         0         0         0         
3      605       415       29623     189       100       0         0         0         0         0         
1      983       675       29623     291       189       0         0         0         0         0         
2      721       990       29623     290       290       0         0         0         0         0         
3      721       990       29623     290       290       0         0         0         0         0         
2      769       992       29623     290       290       0         0         0         0         0         
3      769       992       29623     290       290       0         0         0         0         0         
2      1153      1228      29623     50        192       0         0         0         0         0         
2      546       628       29624     52        189       0         0         0         0         0         
3      546       628       29624     52        189       0         0         0         0         0         
2      1001      603       29624     291       189       0         0         0         0         0         
3      1001      603       29624     291       189       0         0         0         0         0         
1      871       1024      29624     291       291       0         0         0         0         0         
2      747       604       29624     290       189       0         0         0         0         0         
1      554       352       29624     189       119       0         0         0         0         0         
1      137       1054      29624     286       84        0         0         0         0         0         
1      714       622       29625     131       280       0         0         0         0         0         
1      527       1227      29625     52        192       0         0         0         0         0         
1      664       372       29625     131       119       0         0         0         0         0         
1      354       511       29626     119       199       0         0         0         0         0         
1      475       641       29626     52        131       0         0         0         0         0         
1      376       557       29626     168       189       0         0         0         0         0         
1      143       457       29627     54        52        0         0         0         0         0         
1      812       628       29627     290       189       0         0         0         0         0         
1      334       532       29627     119       199       0         0         0         0         0         
1      847       1066      29627     291       291       0         0         0         0         0         
1      488       214       29627     199       207       0         0         0         0         0         
2      994       887       29628     84        290       0         0         0         0         0         
2      557       485       29628     189       189       0         0         0         0         0         
1      782       579       29628     291       189       0         0         0         0         0         
1      527       694       29628     52        189       0         0         0         0         0         
1      527       581       29628     52        189       0         0         0         0         0         
1      916       20        29628     291       98        0         0         0         0         0         
1      484       464       29629     189       168       0         0         0         0         0         
1      78        431       29629     9         52        0         0         0         0         0         
1      732       698       29629     131       189       0         0         0         0         0         
1      230       134       29629     266       9         0         0         0         0         0         
1      968       858       29629     290       290       0         0         0         0         0         
1      663       648       29629     131       189       0         0         0         0         0         
3      1214      1136      29629     129       129       0         0         0         0         0         
1      214       140       29630     207       54        0         0         0         0         0         
2      811       859       29630     290       290       0         0         0         0         0         
1      850       1150      29630     291       291       0         0         0         0         0         
1      722       968       29630     290       290       0         0         0         0         0         
1      698       903       29630     189       290       0         0         0         0         0         
1      533       387       29630     199       299       0         0         0         0         0         
2      292       602       29631     87        189       0         0         0         0         0         
1      749       652       29631     290       189       0         0         0         0         0         
1      876       1053      29631     50        84        0         0         0         0         0         
3      948       859       29631     290       290       0         0         0         0         0         
3      948       859       29631     290       290       0         0         0         0         0         
1      228       719       29632     266       189       0         0         0         0         0         
1      233       534       29632     206       199       0         0         0         0         0         
1      850       662       29632     291       131       0         0         0         0         0         
3      556       801       29633     199       291       0         0         0         0         0         
2      101       233       29633     57        206       0         0         0         0         0         
1      700       747       29633     290       290       0         0         0         0         0         
1      527       677       29633     52        189       0         0         0         0         0         
3      556       801       29633     199       291       0         0         0         0         0         
1      1068      939       29634     291       291       0         0         0         0         0         
2      78        191       29634     9         266       0         0         0         0         0         
1      621       416       29634     280       100       0         0         0         0         0         
1      535       537       29634     189       189       0         0         0         0         0         
1      667       571       29634     131       52        0         0         0         0         0         
1      862       773       29635     290       290       0         0         0         0         0         
1      78        189       29635     9         286       0         0         0         0         0         
3      947       602       29636     290       189       0         0         0         0         0         
1      842       860       29636     290       290       0         0         0         0         0         
1      582       546       29636     189       52        0         0         0         0         0         
3      925       946       29636     290       290       0         0         0         0         0         
3      947       602       29636     290       189       0         0         0         0         0         
2      698       460       29636     189       189       0         0         0         0         0         
1      559       481       29636     189       189       0         0         0         0         0         
1      511       695       29636     199       189       0         0         0         0         0         
2      949       1033      29636     290       84        0         0         0         0         0         
2      390       276       29637     52        87        0         0         0         0         0         
1      771       747       29637     290       290       0         0         0         0         0         
2      737       722       29637     189       290       0         0         0         0         0         
2      313       481       29637     87        189       0         0         0         0         0         
1      969       558       29637     290       189       0         0         0         0         0         
1      419       552       29637     168       189       0         0         0         0         0         
3      1172      606       29638     129       189       0         0         0         0         0         
3      1172      606       29638     129       189       0         0         0         0         0         
1      434       534       29638     52        199       0         0         0         0         0         
1      1107      1066      29638     291       291       0         0         0         0         0         
1      1211      508       29638     129       199       0         0         0         0         0         
1      893       1045      29638     291       291       0         0         0         0         0         
1      1106      1001      29638     291       291       0         0         0         0         0         
4      250       333       29639     127       119       0         0         0         0         0         
1      925       670       29639     290       280       0         0         0         0         0         
1      1225      651       29639     192       189       0         0         0         0         0         
2      462       526       29639     189       52        0         0         0         0         0         
3      462       526       29639     189       52        0         0         0         0         0         
